c This Formular is generated by mcnf
c
c    horn? no 
c    forced? no 
c    mixed sat? no 
c    clause length = 3 
c
p cnf 20  91 
 12 -4 17 0
9 5 14 0
11 1 -2 0
8 -12 5 0
15 20 -18 0
5 15 -19 0
-1 -12 -3 0
-17 -4 -11 0
-10 18 4 0
-18 15 1 0
10 9 19 0
6 11 14 0
19 -2 -10 0
1 9 -18 0
6 -1 -13 0
10 -5 -6 0
10 19 5 0
-10 -5 11 0
-18 -15 19 0
14 -5 -3 0
3 1 -2 0
%
0

83 84 73 95 6 22 97 3 90 69 17 100 6 94 70 11 22 26 9 40
